(set-logic QF_SLIA)
(declare-fun var0 () String)
(assert (not (str.in_re var0 (re.++ ((_ re.loop 18 147) (re.++ (re.union (str.to_re "h~") (re.union (str.to_re ":v") (re.union (str.to_re "B") (str.to_re "Vn(")))) (re.++ (re.union (str.to_re "Rw") (re.union (str.to_re "4T") (re.union (str.to_re "d") (str.to_re "Vr")))) (re.++ (re.union (str.to_re "US.") (re.union (str.to_re "8Qp") (re.union (str.to_re "dR") (str.to_re "fRk")))) (re.union (str.to_re "f+{") (re.union (str.to_re "udG") (re.union (str.to_re "7z") (str.to_re "\u0022!Q")))))))) (re.++ ((_ re.loop 7 227) (re.++ (re.union (str.to_re "7") (re.union (str.to_re "}") (re.union (str.to_re "g") (str.to_re "-vD")))) (re.++ (re.union (str.to_re "C(Q") (re.union (str.to_re "*") (re.union (str.to_re "^#") (str.to_re "[3P")))) (re.++ (re.union (str.to_re "I6\u0022") (re.union (str.to_re "P?w") (re.union (str.to_re "!c") (str.to_re "b")))) (re.union (str.to_re "lm") (re.union (str.to_re "iDA") (re.union (str.to_re "!6L") (str.to_re "8yC")))))))) (re.++ ((_ re.loop 12 837) (re.++ (re.union (str.to_re "F?Z") (re.union (str.to_re "r#n") (re.union (str.to_re "N.%") (str.to_re "v:")))) (re.++ (re.union (str.to_re "D") (re.union (str.to_re "6u") (re.union (str.to_re "'~z") (str.to_re "vR")))) (re.++ (re.union (str.to_re ".") (re.union (str.to_re "f") (re.union (str.to_re "8p") (str.to_re "&")))) (re.union (str.to_re "JU{") (re.union (str.to_re "W") (re.union (str.to_re "$>") (str.to_re "_k")))))))) ((_ re.loop 17 801) (re.++ (re.union (str.to_re "z,v") (re.union (str.to_re "3") (re.union (str.to_re "/") (str.to_re "vq")))) (re.++ (re.union (str.to_re "`") (re.union (str.to_re "rS") (re.union (str.to_re "I7") (str.to_re "mW")))) (re.++ (re.union (str.to_re "u=v") (re.union (str.to_re "v+") (re.union (str.to_re "MT") (str.to_re "S/")))) (re.union (str.to_re "w%=") (re.union (str.to_re "S?p") (re.union (str.to_re "W4t") (str.to_re "3"))))))))))))))
(assert (not (str.in_re var0 (re.++ ((_ re.loop 14 774) (re.++ (re.union (str.to_re "Q") (re.union (str.to_re "W'L") (re.union (str.to_re "o") (str.to_re "F;h")))) (re.++ (re.union (str.to_re "GF&") (re.union (str.to_re "O") (re.union (str.to_re "K7G") (str.to_re "8NW")))) (re.++ (re.union (str.to_re "(") (re.union (str.to_re ",r") (re.union (str.to_re "v{") (str.to_re "k\u00222")))) (re.union (str.to_re "D_W") (re.union (str.to_re "=") (re.union (str.to_re "f?") (str.to_re "54W")))))))) (re.++ ((_ re.loop 13 102) (re.++ (re.union (str.to_re "(*") (re.union (str.to_re "7-\u0022") (re.union (str.to_re "T") (str.to_re "(v")))) (re.++ (re.union (str.to_re ";5") (re.union (str.to_re "Gb") (re.union (str.to_re "RP)") (str.to_re "wG")))) (re.++ (re.union (str.to_re "D") (re.union (str.to_re "4D") (re.union (str.to_re "U#\u0022") (str.to_re "5An")))) (re.union (str.to_re "C") (re.union (str.to_re "z") (re.union (str.to_re "9$[") (str.to_re "U0")))))))) (re.++ ((_ re.loop 11 649) (re.++ (re.union (str.to_re "#j") (re.union (str.to_re "Zai") (re.union (str.to_re "!3g") (str.to_re "Y")))) (re.++ (re.union (str.to_re "$)-") (re.union (str.to_re "].") (re.union (str.to_re "2") (str.to_re "l")))) (re.++ (re.union (str.to_re "[#t") (re.union (str.to_re "[mI") (re.union (str.to_re "cwY") (str.to_re "vo")))) (re.union (str.to_re "{mV") (re.union (str.to_re "5p7") (re.union (str.to_re "0\u0022") (str.to_re "!E")))))))) ((_ re.loop 10 294) (re.++ (re.union (str.to_re "6}>") (re.union (str.to_re "NR") (re.union (str.to_re "4[") (str.to_re "<.")))) (re.++ (re.union (str.to_re "Ri") (re.union (str.to_re "|") (re.union (str.to_re "CB") (str.to_re "CqC")))) (re.++ (re.union (str.to_re "h") (re.union (str.to_re "r({") (re.union (str.to_re "<i{") (str.to_re "#o]")))) (re.union (str.to_re "<h") (re.union (str.to_re "'") (re.union (str.to_re "@") (str.to_re "7"))))))))))))))
(assert (not (str.in_re var0 (re.++ (re.* re.allchar) (re.++ (re.union (str.to_re "<") (re.union (str.to_re ">") (re.union (str.to_re "'") (re.union (str.to_re "\u0022") (str.to_re "&"))))) (re.* re.allchar))))))
(assert (<= 50 (str.len var0)))
(check-sat)
(get-model)
